Maximize
  obj: x3
  + x4 +
  x5
  x23
  + x24 +
  x25
Subject To
  c1:   x1 + x2 + x3 <=2
  c2:  -1 x1 + x2 + x3 <=1
  c3:  x1 - x2 + x3 <=1
  c4:  -1 x1 - x2 + x3 <=0  \comment and ti\ ng




Bounds
  0 <= x1 <=1
  0 <= x2 <=1
  0 <= x3
End

